4 
5  25 52 
6  08 28 43 55 
7  03 10 18 25 33 40 48 55 
8  03 10 18 25 33 40 48 55 
9  03 10 18 28 37 45 52 
10  00 07 15 22 30 37 45 52 
11  00 07 15 22 30 37 45 52 
12  00 07 15 22 30 37 45 52 
13  00 07 15 23 31 39 46 54 
14  01 09 16 24 31 39 46 54 
15  03 11 18 26 33 41 48 56 
16  03 11 18 26 33 41 48 56 
17  03 11 18 26 33 41 48 56 
18  03 11 18 26 33 41 48 56 
19  03 11 18 26 33 41 48 56 
20  04 11 18 26 33 41 48 56 
21  03 11 18 26 33 48 
22  03 18 33 49 
23  04 19 32 47 
0 
